c FILE /home/rafael/Documents/HappySet/MIHS/inputs/happygen/output/graph_scale_free_k4_p0.5_v100_20241127_083832.txt
c SOURCE This is a scale-free graph formed for the happy graph colouring problem.
c DESCRIPTION It was generated using the problem generator of Rhyd Lewis
c
c GRAPH STATS
c Seed                             = 1778740695
c Number of Nodes                  = 100
c Number of colours k              = 4
c Number of pre-assignments        = 50
c Number of links per new node     = 5
c Density                          = 0.0979798
c 
c The degrees of nodes 1 to 100, respectively, are as follows 
c [40, 30, 30, 29, 26, 24, 24, 23, 21, 21, 19, 18, 18, 17, 15, 15, 13, 13, 13, 12, 12, 11, 11, 11, 11, 11, 
c  10, 10, 10, 9, 9, 9, 9, 9, 9, 9, 8, 8, 8, 8, 8, 8, 8, 8, 8, 8, 8, 7, 7, 7, 7, 
c  7, 7, 7, 7, 7, 7, 6, 6, 6, 6, 6, 6, 6, 6, 6, 6, 6, 6, 6, 6, 6, 6, 5, 5, 5, 
c  5, 5, 5, 5, 5, 5, 5, 5, 5, 5, 5, 5, 5, 5, 5, 5, 5, 5, 5, 5, 5, 5, 5, 5] 
c  
p edge 100 485 4
e 1 2
e 1 3
e 1 4
e 1 5
e 1 6
e 1 7
e 1 8
e 1 9
e 1 11
e 1 12
e 1 13
e 1 14
e 1 19
e 1 21
e 1 23
e 1 24
e 1 25
e 1 28
e 1 32
e 1 35
e 1 36
e 1 38
e 1 39
e 1 40
e 1 42
e 1 43
e 1 44
e 1 53
e 1 54
e 1 56
e 1 57
e 1 58
e 1 65
e 1 72
e 1 76
e 1 79
e 1 80
e 1 89
e 1 90
e 1 100
e 2 3
e 2 5
e 2 6
e 2 7
e 2 8
e 2 11
e 2 12
e 2 20
e 2 21
e 2 26
e 2 28
e 2 34
e 2 37
e 2 39
e 2 41
e 2 42
e 2 48
e 2 49
e 2 50
e 2 52
e 2 59
e 2 62
e 2 64
e 2 74
e 2 75
e 2 76
e 2 80
e 2 93
e 2 95
e 3 4
e 3 5
e 3 6
e 3 7
e 3 8
e 3 10
e 3 11
e 3 12
e 3 13
e 3 14
e 3 20
e 3 22
e 3 23
e 3 28
e 3 30
e 3 31
e 3 35
e 3 37
e 3 46
e 3 48
e 3 55
e 3 67
e 3 77
e 3 78
e 3 84
e 3 86
e 3 93
e 3 95
e 4 5
e 4 6
e 4 7
e 4 9
e 4 14
e 4 15
e 4 16
e 4 19
e 4 21
e 4 22
e 4 27
e 4 31
e 4 32
e 4 34
e 4 37
e 4 39
e 4 41
e 4 44
e 4 45
e 4 50
e 4 72
e 4 73
e 4 76
e 4 81
e 4 82
e 4 83
e 4 94
e 5 6
e 5 7
e 5 9
e 5 10
e 5 13
e 5 14
e 5 15
e 5 17
e 5 20
e 5 23
e 5 25
e 5 34
e 5 37
e 5 45
e 5 48
e 5 55
e 5 61
e 5 64
e 5 65
e 5 83
e 5 88
e 5 98
e 6 7
e 6 8
e 6 11
e 6 15
e 6 16
e 6 17
e 6 20
e 6 23
e 6 28
e 6 33
e 6 40
e 6 47
e 6 49
e 6 51
e 6 56
e 6 61
e 6 68
e 6 84
e 6 85
e 7 8
e 7 9
e 7 10
e 7 11
e 7 12
e 7 34
e 7 48
e 7 58
e 7 59
e 7 61
e 7 70
e 7 77
e 7 82
e 7 85
e 7 87
e 7 89
e 7 91
e 7 98
e 8 9
e 8 16
e 8 17
e 8 24
e 8 25
e 8 30
e 8 38
e 8 41
e 8 42
e 8 43
e 8 50
e 8 51
e 8 55
e 8 59
e 8 68
e 8 75
e 8 76
e 8 84
e 9 10
e 9 13
e 9 15
e 9 18
e 9 25
e 9 28
e 9 31
e 9 32
e 9 37
e 9 38
e 9 46
e 9 52
e 9 63
e 9 70
e 9 94
e 9 95
e 10 11
e 10 14
e 10 16
e 10 17
e 10 24
e 10 25
e 10 31
e 10 36
e 10 38
e 10 47
e 10 60
e 10 62
e 10 69
e 10 77
e 10 78
e 10 79
e 10 80
e 11 12
e 11 13
e 11 15
e 11 19
e 11 27
e 11 33
e 11 36
e 11 39
e 11 51
e 11 54
e 11 66
e 11 79
e 11 90
e 12 22
e 12 24
e 12 35
e 12 42
e 12 45
e 12 47
e 12 49
e 12 54
e 12 62
e 12 78
e 12 88
e 12 90
e 12 91
e 13 17
e 13 27
e 13 40
e 13 43
e 13 45
e 13 59
e 13 64
e 13 65
e 13 71
e 13 75
e 13 85
e 13 96
e 13 97
e 14 23
e 14 27
e 14 29
e 14 30
e 14 41
e 14 45
e 14 58
e 14 62
e 14 67
e 14 79
e 14 80
e 14 84
e 15 18
e 15 21
e 15 30
e 15 38
e 15 40
e 15 53
e 15 79
e 15 86
e 15 96
e 15 98
e 16 27
e 16 30
e 16 32
e 16 41
e 16 48
e 16 52
e 16 71
e 16 74
e 16 81
e 16 88
e 16 96
e 17 24
e 17 33
e 17 50
e 17 52
e 17 54
e 17 57
e 17 63
e 17 81
e 18 20
e 18 25
e 18 27
e 18 44
e 18 46
e 18 50
e 18 56
e 18 60
e 18 65
e 18 77
e 18 99
e 19 28
e 19 41
e 19 43
e 19 51
e 19 59
e 19 64
e 19 86
e 19 92
e 19 94
e 19 100
e 20 22
e 20 30
e 20 64
e 20 70
e 20 85
e 20 91
e 20 92
e 21 29
e 21 33
e 21 46
e 21 53
e 21 80
e 21 83
e 21 91
e 21 100
e 22 26
e 22 31
e 22 32
e 22 33
e 22 55
e 22 60
e 22 66
e 23 26
e 23 54
e 23 57
e 23 58
e 23 72
e 23 99
e 24 49
e 24 56
e 24 60
e 24 67
e 24 72
e 24 81
e 25 29
e 25 34
e 25 58
e 25 78
e 25 82
e 26 31
e 26 38
e 26 44
e 26 56
e 26 73
e 26 74
e 26 83
e 26 100
e 27 31
e 27 39
e 27 60
e 27 93
e 28 33
e 28 68
e 28 82
e 28 94
e 29 38
e 29 40
e 29 57
e 29 75
e 29 86
e 29 87
e 29 100
e 30 51
e 30 52
e 30 87
e 31 62
e 31 66
e 32 36
e 32 47
e 32 61
e 32 74
e 33 44
e 33 61
e 33 88
e 34 63
e 34 69
e 34 95
e 34 99
e 35 36
e 35 50
e 35 53
e 35 58
e 35 70
e 35 99
e 36 55
e 36 63
e 36 68
e 36 69
e 37 42
e 37 43
e 37 48
e 38 40
e 39 49
e 39 66
e 39 90
e 40 67
e 40 81
e 41 75
e 41 94
e 42 74
e 42 78
e 42 96
e 43 69
e 43 71
e 43 98
e 44 73
e 44 83
e 44 85
e 45 63
e 45 70
e 45 95
e 46 52
e 46 69
e 46 88
e 46 97
e 47 49
e 47 57
e 47 68
e 47 89
e 48 73
e 49 87
e 50 77
e 51 71
e 51 86
e 52 73
e 53 59
e 53 76
e 53 98
e 54 72
e 54 99
e 55 65
e 55 92
e 56 82
e 56 87
e 57 91
e 57 97
e 60 84
e 61 92
e 62 66
e 63 89
e 64 89
e 65 67
e 66 92
e 67 93
e 68 71
e 69 90
e 70 93
e 71 97
e 72 97
e 73 96
n 6 2
n 9 3
n 19 3
n 22 4
n 24 3
n 27 3
n 29 3
n 30 3
n 34 4
n 36 2
n 38 3
n 41 3
n 42 2
n 43 3
n 44 4
n 45 3
n 47 2
n 48 4
n 50 2
n 53 3
n 54 2
n 58 4
n 59 3
n 61 2
n 62 4
n 65 1
n 66 4
n 68 2
n 70 3
n 73 4
n 74 2
n 75 3
n 77 2
n 78 2
n 79 1
n 80 1
n 81 3
n 82 3
n 83 4
n 84 2
n 86 3
n 87 3
n 88 3
n 89 2
n 90 1
n 93 3
n 94 3
n 97 1
n 98 3
n 100 3
